c FILE /home/rafael/Documents/HappySet/MIHS/inputs/happygen/output/graph_random_k2_p0.2_v100_20241127_083551.txt
c SOURCE This is a random graph formed for the happy graph colouring problem.
c DESCRIPTION It was generated using the problem generator of Rhyd Lewis
c
c GRAPH STATS
c Seed                             = -822411878
c Number of Nodes                  = 100
c Edge probability defined by user = 0.5
c Number of colours k              = 2
c Number of pre-assignments        = 20
c Actual density                   = 0.490505
c 
c The degrees of nodes 1 to 100, respectively, are as follows 
c [63, 61, 60, 60, 58, 56, 56, 55, 55, 55, 55, 55, 54, 54, 54, 54, 54, 54, 54, 54, 54, 54, 53, 53, 53, 53, 
c  53, 53, 53, 53, 53, 52, 52, 52, 51, 51, 51, 51, 51, 51, 51, 51, 50, 50, 50, 50, 50, 49, 49, 49, 49, 
c  49, 48, 48, 47, 47, 47, 47, 47, 47, 47, 46, 46, 46, 46, 46, 46, 45, 45, 45, 45, 45, 45, 45, 44, 44, 
c  44, 44, 43, 43, 43, 43, 43, 43, 43, 43, 42, 42, 41, 41, 40, 40, 40, 40, 40, 39, 39, 37, 37, 37] 
c  
p edge 100 2428 2
e 1 2
e 1 3
e 1 4
e 1 7
e 1 8
e 1 9
e 1 10
e 1 12
e 1 13
e 1 14
e 1 17
e 1 18
e 1 19
e 1 21
e 1 22
e 1 23
e 1 27
e 1 31
e 1 32
e 1 34
e 1 36
e 1 37
e 1 38
e 1 39
e 1 40
e 1 41
e 1 42
e 1 43
e 1 45
e 1 46
e 1 47
e 1 48
e 1 49
e 1 50
e 1 52
e 1 53
e 1 55
e 1 58
e 1 59
e 1 60
e 1 61
e 1 63
e 1 67
e 1 70
e 1 71
e 1 72
e 1 75
e 1 78
e 1 80
e 1 81
e 1 82
e 1 85
e 1 86
e 1 87
e 1 88
e 1 89
e 1 90
e 1 91
e 1 94
e 1 95
e 1 96
e 1 97
e 1 98
e 2 5
e 2 6
e 2 7
e 2 8
e 2 9
e 2 11
e 2 12
e 2 13
e 2 15
e 2 16
e 2 17
e 2 18
e 2 19
e 2 20
e 2 21
e 2 22
e 2 23
e 2 24
e 2 25
e 2 27
e 2 28
e 2 29
e 2 31
e 2 34
e 2 35
e 2 36
e 2 39
e 2 41
e 2 44
e 2 45
e 2 46
e 2 47
e 2 48
e 2 51
e 2 52
e 2 53
e 2 54
e 2 55
e 2 57
e 2 58
e 2 62
e 2 63
e 2 64
e 2 70
e 2 73
e 2 74
e 2 75
e 2 77
e 2 81
e 2 82
e 2 84
e 2 86
e 2 87
e 2 90
e 2 91
e 2 93
e 2 94
e 2 95
e 2 97
e 2 98
e 3 4
e 3 5
e 3 6
e 3 7
e 3 9
e 3 10
e 3 11
e 3 12
e 3 14
e 3 17
e 3 19
e 3 21
e 3 22
e 3 24
e 3 25
e 3 26
e 3 27
e 3 30
e 3 31
e 3 32
e 3 33
e 3 36
e 3 37
e 3 39
e 3 40
e 3 41
e 3 42
e 3 43
e 3 44
e 3 45
e 3 46
e 3 47
e 3 48
e 3 49
e 3 51
e 3 53
e 3 54
e 3 55
e 3 58
e 3 59
e 3 60
e 3 62
e 3 64
e 3 66
e 3 68
e 3 70
e 3 72
e 3 74
e 3 75
e 3 77
e 3 80
e 3 83
e 3 85
e 3 87
e 3 91
e 3 92
e 3 94
e 3 98
e 3 99
e 4 5
e 4 6
e 4 7
e 4 8
e 4 9
e 4 11
e 4 13
e 4 15
e 4 18
e 4 20
e 4 21
e 4 22
e 4 23
e 4 24
e 4 25
e 4 26
e 4 31
e 4 33
e 4 34
e 4 35
e 4 38
e 4 40
e 4 41
e 4 42
e 4 43
e 4 44
e 4 46
e 4 48
e 4 49
e 4 50
e 4 52
e 4 53
e 4 56
e 4 59
e 4 60
e 4 67
e 4 68
e 4 69
e 4 70
e 4 72
e 4 73
e 4 76
e 4 77
e 4 78
e 4 79
e 4 80
e 4 82
e 4 84
e 4 85
e 4 87
e 4 90
e 4 93
e 4 94
e 4 95
e 4 96
e 4 98
e 4 99
e 4 100
e 5 6
e 5 7
e 5 8
e 5 10
e 5 12
e 5 15
e 5 16
e 5 17
e 5 18
e 5 19
e 5 21
e 5 25
e 5 26
e 5 28
e 5 29
e 5 30
e 5 32
e 5 33
e 5 34
e 5 35
e 5 36
e 5 37
e 5 40
e 5 41
e 5 42
e 5 43
e 5 45
e 5 46
e 5 47
e 5 49
e 5 50
e 5 52
e 5 54
e 5 55
e 5 56
e 5 58
e 5 59
e 5 60
e 5 68
e 5 71
e 5 72
e 5 78
e 5 80
e 5 83
e 5 84
e 5 85
e 5 86
e 5 87
e 5 88
e 5 89
e 5 91
e 5 92
e 5 93
e 5 95
e 5 97
e 6 7
e 6 9
e 6 11
e 6 13
e 6 14
e 6 17
e 6 18
e 6 21
e 6 22
e 6 23
e 6 24
e 6 26
e 6 28
e 6 29
e 6 30
e 6 31
e 6 33
e 6 34
e 6 35
e 6 39
e 6 40
e 6 41
e 6 42
e 6 44
e 6 46
e 6 48
e 6 50
e 6 51
e 6 52
e 6 55
e 6 56
e 6 58
e 6 60
e 6 63
e 6 64
e 6 68
e 6 69
e 6 72
e 6 73
e 6 74
e 6 76
e 6 77
e 6 78
e 6 82
e 6 83
e 6 85
e 6 86
e 6 88
e 6 90
e 6 93
e 6 96
e 6 98
e 7 11
e 7 13
e 7 15
e 7 16
e 7 17
e 7 22
e 7 23
e 7 24
e 7 25
e 7 26
e 7 28
e 7 29
e 7 30
e 7 32
e 7 34
e 7 36
e 7 38
e 7 42
e 7 43
e 7 44
e 7 46
e 7 49
e 7 50
e 7 52
e 7 53
e 7 55
e 7 61
e 7 62
e 7 63
e 7 67
e 7 68
e 7 69
e 7 70
e 7 72
e 7 73
e 7 75
e 7 79
e 7 82
e 7 84
e 7 85
e 7 86
e 7 88
e 7 90
e 7 91
e 7 94
e 7 95
e 7 97
e 7 98
e 7 99
e 7 100
e 8 11
e 8 12
e 8 13
e 8 14
e 8 16
e 8 17
e 8 18
e 8 20
e 8 21
e 8 26
e 8 27
e 8 28
e 8 29
e 8 31
e 8 32
e 8 33
e 8 34
e 8 35
e 8 36
e 8 37
e 8 38
e 8 39
e 8 40
e 8 41
e 8 42
e 8 44
e 8 46
e 8 47
e 8 49
e 8 50
e 8 51
e 8 53
e 8 57
e 8 60
e 8 62
e 8 63
e 8 64
e 8 67
e 8 71
e 8 74
e 8 79
e 8 81
e 8 83
e 8 84
e 8 86
e 8 88
e 8 89
e 8 90
e 8 93
e 8 95
e 8 99
e 9 15
e 9 16
e 9 17
e 9 19
e 9 20
e 9 21
e 9 22
e 9 23
e 9 25
e 9 28
e 9 29
e 9 30
e 9 31
e 9 33
e 9 34
e 9 35
e 9 36
e 9 37
e 9 38
e 9 39
e 9 40
e 9 43
e 9 44
e 9 47
e 9 52
e 9 53
e 9 58
e 9 62
e 9 63
e 9 66
e 9 68
e 9 70
e 9 72
e 9 74
e 9 75
e 9 76
e 9 77
e 9 78
e 9 79
e 9 80
e 9 83
e 9 84
e 9 85
e 9 86
e 9 88
e 9 91
e 9 93
e 9 95
e 9 96
e 9 100
e 10 11
e 10 12
e 10 14
e 10 15
e 10 16
e 10 17
e 10 18
e 10 20
e 10 22
e 10 23
e 10 24
e 10 25
e 10 28
e 10 29
e 10 31
e 10 33
e 10 34
e 10 35
e 10 36
e 10 37
e 10 40
e 10 46
e 10 47
e 10 48
e 10 51
e 10 53
e 10 54
e 10 57
e 10 58
e 10 59
e 10 60
e 10 61
e 10 62
e 10 63
e 10 65
e 10 66
e 10 69
e 10 70
e 10 73
e 10 74
e 10 77
e 10 78
e 10 80
e 10 81
e 10 83
e 10 86
e 10 87
e 10 88
e 10 89
e 10 90
e 10 94
e 10 98
e 11 12
e 11 14
e 11 16
e 11 17
e 11 18
e 11 20
e 11 21
e 11 22
e 11 24
e 11 26
e 11 27
e 11 32
e 11 34
e 11 35
e 11 36
e 11 37
e 11 39
e 11 41
e 11 42
e 11 43
e 11 44
e 11 49
e 11 51
e 11 52
e 11 53
e 11 54
e 11 55
e 11 59
e 11 60
e 11 61
e 11 62
e 11 66
e 11 67
e 11 68
e 11 69
e 11 71
e 11 72
e 11 73
e 11 74
e 11 84
e 11 88
e 11 89
e 11 90
e 11 91
e 11 94
e 11 96
e 11 98
e 11 99
e 12 13
e 12 14
e 12 15
e 12 16
e 12 18
e 12 20
e 12 21
e 12 22
e 12 23
e 12 25
e 12 27
e 12 30
e 12 31
e 12 33
e 12 35
e 12 36
e 12 38
e 12 39
e 12 40
e 12 44
e 12 45
e 12 49
e 12 51
e 12 53
e 12 54
e 12 56
e 12 57
e 12 60
e 12 61
e 12 62
e 12 66
e 12 67
e 12 73
e 12 74
e 12 75
e 12 81
e 12 82
e 12 83
e 12 84
e 12 85
e 12 87
e 12 89
e 12 91
e 12 92
e 12 94
e 12 96
e 12 97
e 12 99
e 13 14
e 13 16
e 13 17
e 13 18
e 13 20
e 13 21
e 13 22
e 13 23
e 13 24
e 13 26
e 13 28
e 13 30
e 13 31
e 13 33
e 13 34
e 13 36
e 13 38
e 13 39
e 13 40
e 13 41
e 13 45
e 13 47
e 13 49
e 13 52
e 13 53
e 13 55
e 13 56
e 13 63
e 13 67
e 13 69
e 13 72
e 13 73
e 13 74
e 13 75
e 13 76
e 13 77
e 13 79
e 13 81
e 13 83
e 13 86
e 13 91
e 13 92
e 13 93
e 13 94
e 13 95
e 13 97
e 13 100
e 14 15
e 14 16
e 14 17
e 14 18
e 14 20
e 14 22
e 14 26
e 14 27
e 14 31
e 14 32
e 14 33
e 14 34
e 14 35
e 14 36
e 14 39
e 14 43
e 14 44
e 14 45
e 14 46
e 14 47
e 14 48
e 14 49
e 14 50
e 14 51
e 14 54
e 14 57
e 14 58
e 14 59
e 14 60
e 14 61
e 14 62
e 14 64
e 14 65
e 14 69
e 14 70
e 14 72
e 14 73
e 14 77
e 14 79
e 14 80
e 14 82
e 14 83
e 14 92
e 14 96
e 14 99
e 14 100
e 15 16
e 15 17
e 15 19
e 15 20
e 15 21
e 15 24
e 15 25
e 15 28
e 15 30
e 15 31
e 15 35
e 15 37
e 15 38
e 15 39
e 15 43
e 15 44
e 15 45
e 15 46
e 15 51
e 15 54
e 15 55
e 15 57
e 15 58
e 15 59
e 15 60
e 15 62
e 15 63
e 15 64
e 15 65
e 15 66
e 15 69
e 15 70
e 15 72
e 15 75
e 15 76
e 15 78
e 15 79
e 15 80
e 15 82
e 15 85
e 15 86
e 15 90
e 15 91
e 15 92
e 15 95
e 15 96
e 16 17
e 16 19
e 16 22
e 16 23
e 16 24
e 16 26
e 16 29
e 16 32
e 16 34
e 16 35
e 16 38
e 16 39
e 16 40
e 16 41
e 16 44
e 16 45
e 16 48
e 16 50
e 16 52
e 16 55
e 16 57
e 16 59
e 16 60
e 16 61
e 16 66
e 16 68
e 16 69
e 16 70
e 16 73
e 16 74
e 16 76
e 16 77
e 16 78
e 16 79
e 16 80
e 16 82
e 16 86
e 16 87
e 16 90
e 16 91
e 16 96
e 16 98
e 16 99
e 17 18
e 17 19
e 17 23
e 17 30
e 17 31
e 17 32
e 17 36
e 17 38
e 17 39
e 17 40
e 17 43
e 17 45
e 17 50
e 17 53
e 17 54
e 17 56
e 17 57
e 17 59
e 17 62
e 17 63
e 17 64
e 17 66
e 17 67
e 17 70
e 17 71
e 17 75
e 17 76
e 17 78
e 17 79
e 17 80
e 17 81
e 17 85
e 17 86
e 17 87
e 17 88
e 17 91
e 17 93
e 17 94
e 17 95
e 17 96
e 18 23
e 18 24
e 18 25
e 18 27
e 18 28
e 18 30
e 18 31
e 18 32
e 18 35
e 18 37
e 18 39
e 18 43
e 18 45
e 18 50
e 18 52
e 18 54
e 18 56
e 18 57
e 18 58
e 18 59
e 18 61
e 18 64
e 18 65
e 18 67
e 18 68
e 18 69
e 18 70
e 18 72
e 18 73
e 18 74
e 18 76
e 18 78
e 18 79
e 18 80
e 18 83
e 18 85
e 18 86
e 18 87
e 18 88
e 18 91
e 18 95
e 18 100
e 19 20
e 19 21
e 19 22
e 19 23
e 19 24
e 19 26
e 19 28
e 19 29
e 19 30
e 19 31
e 19 35
e 19 36
e 19 37
e 19 38
e 19 39
e 19 40
e 19 41
e 19 42
e 19 43
e 19 44
e 19 45
e 19 46
e 19 47
e 19 50
e 19 51
e 19 52
e 19 53
e 19 55
e 19 61
e 19 63
e 19 68
e 19 69
e 19 70
e 19 71
e 19 73
e 19 76
e 19 78
e 19 79
e 19 80
e 19 84
e 19 86
e 19 87
e 19 90
e 19 92
e 19 94
e 19 96
e 20 21
e 20 22
e 20 24
e 20 26
e 20 30
e 20 31
e 20 32
e 20 33
e 20 34
e 20 36
e 20 37
e 20 39
e 20 40
e 20 41
e 20 42
e 20 43
e 20 46
e 20 47
e 20 48
e 20 49
e 20 50
e 20 52
e 20 53
e 20 55
e 20 58
e 20 60
e 20 64
e 20 65
e 20 66
e 20 67
e 20 69
e 20 71
e 20 72
e 20 73
e 20 75
e 20 76
e 20 77
e 20 79
e 20 82
e 20 83
e 20 88
e 20 94
e 20 98
e 21 23
e 21 24
e 21 28
e 21 30
e 21 31
e 21 32
e 21 34
e 21 37
e 21 38
e 21 40
e 21 41
e 21 43
e 21 44
e 21 45
e 21 46
e 21 50
e 21 53
e 21 54
e 21 55
e 21 57
e 21 61
e 21 62
e 21 64
e 21 65
e 21 67
e 21 68
e 21 69
e 21 72
e 21 74
e 21 75
e 21 76
e 21 81
e 21 82
e 21 83
e 21 89
e 21 90
e 21 91
e 21 92
e 21 99
e 21 100
e 22 24
e 22 25
e 22 26
e 22 27
e 22 29
e 22 30
e 22 32
e 22 33
e 22 34
e 22 35
e 22 42
e 22 44
e 22 45
e 22 47
e 22 51
e 22 52
e 22 54
e 22 57
e 22 58
e 22 61
e 22 62
e 22 63
e 22 65
e 22 66
e 22 67
e 22 70
e 22 72
e 22 73
e 22 74
e 22 76
e 22 78
e 22 80
e 22 83
e 22 84
e 22 89
e 22 90
e 22 92
e 22 96
e 22 97
e 23 25
e 23 27
e 23 29
e 23 30
e 23 33
e 23 36
e 23 38
e 23 41
e 23 42
e 23 43
e 23 44
e 23 45
e 23 46
e 23 47
e 23 48
e 23 50
e 23 51
e 23 53
e 23 55
e 23 56
e 23 59
e 23 60
e 23 61
e 23 62
e 23 63
e 23 65
e 23 66
e 23 69
e 23 71
e 23 72
e 23 73
e 23 77
e 23 78
e 23 81
e 23 84
e 23 86
e 23 88
e 23 94
e 23 96
e 24 27
e 24 28
e 24 29
e 24 31
e 24 32
e 24 38
e 24 39
e 24 40
e 24 44
e 24 45
e 24 48
e 24 49
e 24 51
e 24 53
e 24 56
e 24 57
e 24 58
e 24 60
e 24 64
e 24 66
e 24 68
e 24 70
e 24 71
e 24 76
e 24 78
e 24 80
e 24 82
e 24 83
e 24 84
e 24 86
e 24 87
e 24 88
e 24 91
e 24 92
e 24 93
e 24 94
e 24 97
e 24 99
e 25 26
e 25 28
e 25 29
e 25 30
e 25 31
e 25 34
e 25 36
e 25 40
e 25 42
e 25 44
e 25 47
e 25 48
e 25 49
e 25 50
e 25 51
e 25 53
e 25 56
e 25 58
e 25 59
e 25 61
e 25 62
e 25 63
e 25 64
e 25 65
e 25 73
e 25 74
e 25 75
e 25 76
e 25 79
e 25 81
e 25 83
e 25 85
e 25 87
e 25 88
e 25 89
e 25 90
e 25 91
e 25 95
e 25 96
e 25 97
e 25 99
e 26 28
e 26 29
e 26 30
e 26 31
e 26 34
e 26 35
e 26 36
e 26 40
e 26 41
e 26 43
e 26 44
e 26 46
e 26 49
e 26 50
e 26 51
e 26 52
e 26 54
e 26 55
e 26 56
e 26 57
e 26 58
e 26 59
e 26 61
e 26 64
e 26 65
e 26 67
e 26 68
e 26 69
e 26 70
e 26 73
e 26 76
e 26 80
e 26 84
e 26 90
e 26 92
e 26 94
e 26 98
e 26 99
e 26 100
e 27 29
e 27 31
e 27 32
e 27 34
e 27 35
e 27 36
e 27 37
e 27 39
e 27 40
e 27 41
e 27 42
e 27 43
e 27 45
e 27 48
e 27 49
e 27 50
e 27 52
e 27 54
e 27 56
e 27 57
e 27 58
e 27 59
e 27 63
e 27 64
e 27 65
e 27 66
e 27 68
e 27 69
e 27 71
e 27 72
e 27 73
e 27 74
e 27 75
e 27 76
e 27 77
e 27 80
e 27 83
e 27 85
e 27 88
e 27 91
e 27 97
e 27 98
e 28 29
e 28 31
e 28 33
e 28 35
e 28 37
e 28 38
e 28 44
e 28 46
e 28 48
e 28 49
e 28 50
e 28 52
e 28 54
e 28 56
e 28 57
e 28 59
e 28 60
e 28 62
e 28 64
e 28 65
e 28 66
e 28 67
e 28 69
e 28 70
e 28 71
e 28 73
e 28 75
e 28 78
e 28 79
e 28 81
e 28 83
e 28 87
e 28 88
e 28 89
e 28 92
e 28 94
e 28 97
e 28 99
e 29 30
e 29 32
e 29 36
e 29 38
e 29 39
e 29 40
e 29 41
e 29 42
e 29 45
e 29 47
e 29 49
e 29 50
e 29 51
e 29 53
e 29 56
e 29 60
e 29 62
e 29 63
e 29 66
e 29 68
e 29 69
e 29 71
e 29 76
e 29 77
e 29 78
e 29 79
e 29 81
e 29 82
e 29 84
e 29 85
e 29 87
e 29 88
e 29 89
e 29 95
e 29 96
e 29 97
e 29 100
e 30 31
e 30 33
e 30 34
e 30 36
e 30 40
e 30 41
e 30 42
e 30 43
e 30 44
e 30 45
e 30 47
e 30 50
e 30 52
e 30 53
e 30 54
e 30 61
e 30 64
e 30 66
e 30 67
e 30 68
e 30 69
e 30 72
e 30 74
e 30 75
e 30 78
e 30 79
e 30 81
e 30 85
e 30 87
e 30 89
e 30 91
e 30 96
e 30 97
e 30 98
e 30 99
e 31 32
e 31 34
e 31 36
e 31 39
e 31 41
e 31 42
e 31 44
e 31 45
e 31 48
e 31 49
e 31 51
e 31 52
e 31 55
e 31 57
e 31 59
e 31 60
e 31 62
e 31 63
e 31 64
e 31 65
e 31 66
e 31 71
e 31 75
e 31 77
e 31 80
e 31 82
e 31 85
e 31 92
e 31 96
e 31 99
e 32 33
e 32 34
e 32 38
e 32 39
e 32 40
e 32 42
e 32 43
e 32 44
e 32 47
e 32 48
e 32 49
e 32 51
e 32 54
e 32 55
e 32 56
e 32 60
e 32 61
e 32 63
e 32 67
e 32 69
e 32 70
e 32 71
e 32 74
e 32 75
e 32 76
e 32 77
e 32 78
e 32 79
e 32 81
e 32 84
e 32 85
e 32 89
e 32 91
e 32 97
e 32 100
e 33 34
e 33 35
e 33 36
e 33 37
e 33 39
e 33 44
e 33 45
e 33 46
e 33 48
e 33 49
e 33 51
e 33 53
e 33 54
e 33 55
e 33 56
e 33 57
e 33 61
e 33 63
e 33 65
e 33 66
e 33 68
e 33 71
e 33 73
e 33 74
e 33 75
e 33 77
e 33 78
e 33 79
e 33 83
e 33 84
e 33 90
e 33 91
e 33 92
e 33 96
e 33 99
e 33 100
e 34 38
e 34 40
e 34 41
e 34 42
e 34 43
e 34 46
e 34 51
e 34 52
e 34 56
e 34 61
e 34 62
e 34 63
e 34 64
e 34 65
e 34 67
e 34 69
e 34 70
e 34 71
e 34 72
e 34 73
e 34 74
e 34 76
e 34 78
e 34 81
e 34 88
e 34 89
e 34 90
e 34 97
e 34 98
e 35 38
e 35 41
e 35 44
e 35 46
e 35 47
e 35 48
e 35 49
e 35 50
e 35 51
e 35 52
e 35 53
e 35 54
e 35 55
e 35 57
e 35 58
e 35 61
e 35 63
e 35 65
e 35 68
e 35 69
e 35 70
e 35 71
e 35 73
e 35 74
e 35 78
e 35 82
e 35 83
e 35 89
e 35 92
e 35 93
e 35 97
e 35 99
e 36 37
e 36 38
e 36 41
e 36 42
e 36 43
e 36 53
e 36 54
e 36 55
e 36 66
e 36 67
e 36 69
e 36 70
e 36 72
e 36 73
e 36 74
e 36 77
e 36 79
e 36 80
e 36 81
e 36 84
e 36 86
e 36 88
e 36 91
e 36 92
e 36 93
e 36 94
e 36 96
e 36 98
e 37 39
e 37 40
e 37 41
e 37 42
e 37 44
e 37 45
e 37 46
e 37 47
e 37 48
e 37 49
e 37 50
e 37 51
e 37 56
e 37 59
e 37 61
e 37 62
e 37 64
e 37 65
e 37 66
e 37 70
e 37 72
e 37 75
e 37 76
e 37 77
e 37 78
e 37 80
e 37 82
e 37 83
e 37 84
e 37 85
e 37 89
e 37 93
e 37 95
e 37 98
e 37 99
e 38 40
e 38 41
e 38 46
e 38 47
e 38 48
e 38 49
e 38 51
e 38 54
e 38 55
e 38 59
e 38 61
e 38 63
e 38 64
e 38 70
e 38 72
e 38 73
e 38 76
e 38 77
e 38 79
e 38 81
e 38 82
e 38 85
e 38 86
e 38 88
e 38 89
e 38 90
e 38 93
e 38 95
e 38 96
e 38 99
e 38 100
e 39 40
e 39 41
e 39 42
e 39 43
e 39 44
e 39 45
e 39 46
e 39 48
e 39 50
e 39 56
e 39 57
e 39 60
e 39 63
e 39 66
e 39 67
e 39 72
e 39 74
e 39 77
e 39 79
e 39 85
e 39 86
e 39 88
e 39 89
e 39 92
e 39 93
e 39 94
e 39 95
e 39 97
e 40 42
e 40 47
e 40 48
e 40 50
e 40 53
e 40 56
e 40 57
e 40 58
e 40 60
e 40 61
e 40 62
e 40 63
e 40 65
e 40 69
e 40 74
e 40 75
e 40 79
e 40 80
e 40 81
e 40 83
e 40 84
e 40 86
e 40 87
e 40 91
e 40 97
e 41 45
e 41 46
e 41 48
e 41 49
e 41 50
e 41 51
e 41 53
e 41 54
e 41 55
e 41 58
e 41 59
e 41 61
e 41 65
e 41 68
e 41 71
e 41 75
e 41 78
e 41 82
e 41 85
e 41 88
e 41 90
e 41 92
e 41 93
e 41 97
e 41 98
e 41 99
e 42 44
e 42 47
e 42 48
e 42 50
e 42 53
e 42 54
e 42 55
e 42 56
e 42 58
e 42 64
e 42 67
e 42 68
e 42 69
e 42 70
e 42 71
e 42 72
e 42 73
e 42 74
e 42 81
e 42 82
e 42 87
e 42 88
e 42 89
e 42 93
e 42 94
e 42 95
e 42 96
e 42 98
e 43 48
e 43 49
e 43 51
e 43 52
e 43 53
e 43 56
e 43 57
e 43 60
e 43 61
e 43 62
e 43 64
e 43 65
e 43 66
e 43 70
e 43 72
e 43 75
e 43 76
e 43 79
e 43 81
e 43 83
e 43 86
e 43 88
e 43 90
e 43 92
e 43 93
e 43 97
e 43 99
e 43 100
e 44 46
e 44 48
e 44 49
e 44 51
e 44 52
e 44 53
e 44 55
e 44 56
e 44 57
e 44 58
e 44 63
e 44 71
e 44 72
e 44 74
e 44 78
e 44 81
e 44 85
e 44 86
e 44 87
e 44 90
e 44 95
e 44 99
e 45 50
e 45 52
e 45 53
e 45 54
e 45 57
e 45 58
e 45 60
e 45 61
e 45 62
e 45 64
e 45 67
e 45 69
e 45 72
e 45 73
e 45 74
e 45 76
e 45 77
e 45 79
e 45 82
e 45 83
e 45 85
e 45 89
e 45 90
e 45 95
e 45 96
e 45 99
e 46 47
e 46 48
e 46 51
e 46 54
e 46 55
e 46 58
e 46 60
e 46 61
e 46 64
e 46 65
e 46 66
e 46 67
e 46 72
e 46 74
e 46 76
e 46 78
e 46 79
e 46 81
e 46 86
e 46 88
e 46 91
e 46 93
e 46 95
e 46 97
e 46 99
e 47 49
e 47 50
e 47 52
e 47 58
e 47 59
e 47 60
e 47 61
e 47 64
e 47 65
e 47 67
e 47 70
e 47 71
e 47 73
e 47 74
e 47 75
e 47 77
e 47 80
e 47 82
e 47 84
e 47 86
e 47 88
e 47 89
e 47 93
e 47 95
e 47 96
e 47 99
e 47 100
e 48 49
e 48 50
e 48 52
e 48 55
e 48 56
e 48 60
e 48 61
e 48 62
e 48 63
e 48 66
e 48 68
e 48 70
e 48 75
e 48 77
e 48 78
e 48 79
e 48 81
e 48 84
e 48 85
e 48 87
e 48 90
e 48 93
e 49 52
e 49 53
e 49 54
e 49 55
e 49 56
e 49 57
e 49 58
e 49 62
e 49 63
e 49 64
e 49 67
e 49 68
e 49 71
e 49 76
e 49 77
e 49 78
e 49 80
e 49 88
e 49 94
e 49 95
e 49 96
e 50 51
e 50 52
e 50 53
e 50 54
e 50 56
e 50 58
e 50 61
e 50 64
e 50 65
e 50 66
e 50 68
e 50 72
e 50 75
e 50 76
e 50 77
e 50 83
e 50 84
e 50 93
e 50 98
e 50 100
e 51 52
e 51 56
e 51 57
e 51 58
e 51 59
e 51 60
e 51 61
e 51 62
e 51 64
e 51 73
e 51 74
e 51 75
e 51 78
e 51 82
e 51 84
e 51 87
e 51 88
e 51 90
e 51 93
e 51 95
e 51 100
e 52 53
e 52 54
e 52 56
e 52 57
e 52 58
e 52 59
e 52 60
e 52 67
e 52 72
e 52 74
e 52 82
e 52 83
e 52 86
e 52 87
e 52 89
e 52 92
e 52 95
e 52 97
e 52 98
e 52 100
e 53 54
e 53 56
e 53 60
e 53 66
e 53 67
e 53 70
e 53 71
e 53 72
e 53 73
e 53 76
e 53 79
e 53 82
e 53 87
e 53 96
e 53 97
e 53 98
e 54 55
e 54 56
e 54 59
e 54 61
e 54 62
e 54 64
e 54 66
e 54 67
e 54 69
e 54 71
e 54 73
e 54 75
e 54 80
e 54 87
e 54 88
e 54 89
e 54 92
e 54 94
e 54 97
e 55 57
e 55 58
e 55 61
e 55 65
e 55 71
e 55 72
e 55 74
e 55 76
e 55 78
e 55 86
e 55 87
e 55 88
e 55 89
e 55 92
e 55 93
e 55 95
e 55 97
e 55 99
e 55 100
e 56 60
e 56 65
e 56 67
e 56 68
e 56 70
e 56 74
e 56 76
e 56 77
e 56 78
e 56 79
e 56 82
e 56 84
e 56 85
e 56 86
e 56 90
e 56 92
e 56 98
e 57 58
e 57 59
e 57 63
e 57 65
e 57 69
e 57 70
e 57 71
e 57 72
e 57 73
e 57 74
e 57 75
e 57 78
e 57 80
e 57 85
e 57 86
e 57 88
e 57 89
e 57 91
e 57 94
e 57 98
e 58 60
e 58 61
e 58 63
e 58 64
e 58 65
e 58 70
e 58 74
e 58 75
e 58 79
e 58 80
e 58 84
e 58 86
e 58 90
e 58 91
e 58 94
e 58 95
e 58 100
e 59 61
e 59 64
e 59 67
e 59 68
e 59 70
e 59 71
e 59 72
e 59 73
e 59 76
e 59 79
e 59 80
e 59 82
e 59 87
e 59 88
e 59 89
e 59 90
e 59 92
e 59 93
e 59 94
e 59 97
e 59 98
e 59 100
e 60 61
e 60 62
e 60 65
e 60 68
e 60 70
e 60 74
e 60 76
e 60 78
e 60 79
e 60 83
e 60 86
e 60 88
e 60 92
e 60 94
e 60 96
e 60 99
e 61 76
e 61 81
e 61 82
e 61 85
e 61 86
e 61 87
e 61 88
e 61 90
e 61 91
e 61 92
e 61 97
e 61 100
e 62 63
e 62 65
e 62 66
e 62 67
e 62 68
e 62 70
e 62 71
e 62 75
e 62 77
e 62 81
e 62 82
e 62 85
e 62 87
e 62 89
e 62 90
e 62 91
e 62 92
e 62 96
e 63 66
e 63 69
e 63 72
e 63 73
e 63 75
e 63 76
e 63 82
e 63 83
e 63 84
e 63 87
e 63 90
e 63 93
e 63 97
e 63 98
e 63 99
e 63 100
e 64 65
e 64 67
e 64 68
e 64 72
e 64 78
e 64 79
e 64 80
e 64 82
e 64 83
e 64 86
e 64 89
e 64 92
e 64 96
e 64 97
e 64 99
e 65 68
e 65 70
e 65 71
e 65 72
e 65 73
e 65 77
e 65 81
e 65 83
e 65 84
e 65 85
e 65 86
e 65 87
e 65 94
e 65 96
e 65 98
e 65 100
e 66 68
e 66 69
e 66 70
e 66 71
e 66 74
e 66 75
e 66 77
e 66 79
e 66 80
e 66 83
e 66 86
e 66 88
e 66 89
e 66 90
e 66 92
e 66 98
e 66 100
e 67 71
e 67 72
e 67 73
e 67 74
e 67 75
e 67 78
e 67 79
e 67 81
e 67 82
e 67 83
e 67 85
e 67 89
e 67 93
e 67 98
e 67 100
e 68 69
e 68 73
e 68 76
e 68 80
e 68 83
e 68 84
e 68 85
e 68 86
e 68 87
e 68 91
e 68 94
e 68 95
e 68 97
e 68 98
e 68 99
e 69 71
e 69 74
e 69 78
e 69 79
e 69 81
e 69 82
e 69 83
e 69 85
e 69 90
e 69 91
e 69 92
e 69 93
e 69 94
e 69 98
e 70 71
e 70 72
e 70 80
e 70 82
e 70 84
e 70 85
e 70 86
e 70 87
e 70 94
e 71 72
e 71 73
e 71 75
e 71 80
e 71 81
e 71 85
e 71 88
e 71 89
e 71 91
e 71 92
e 71 97
e 71 99
e 72 81
e 72 86
e 72 92
e 72 93
e 72 97
e 73 80
e 73 81
e 73 84
e 73 89
e 73 90
e 73 91
e 73 95
e 73 97
e 74 76
e 74 77
e 74 78
e 74 82
e 74 85
e 74 93
e 74 96
e 75 79
e 75 82
e 75 83
e 75 84
e 75 87
e 75 92
e 75 94
e 75 96
e 75 97
e 75 98
e 76 77
e 76 78
e 76 80
e 76 81
e 76 82
e 76 83
e 76 92
e 76 94
e 76 100
e 77 78
e 77 84
e 77 87
e 77 88
e 77 91
e 77 92
e 77 93
e 77 94
e 77 95
e 77 96
e 77 97
e 77 99
e 77 100
e 78 84
e 78 87
e 78 92
e 78 95
e 78 96
e 78 97
e 79 82
e 79 83
e 79 84
e 79 91
e 79 92
e 79 95
e 79 100
e 80 81
e 80 84
e 80 85
e 80 87
e 80 88
e 80 89
e 80 90
e 80 91
e 80 94
e 80 100
e 81 85
e 81 87
e 81 88
e 81 89
e 81 90
e 81 92
e 81 93
e 81 94
e 81 98
e 81 100
e 82 84
e 82 85
e 82 88
e 82 90
e 82 95
e 82 100
e 83 88
e 83 89
e 83 93
e 83 95
e 83 96
e 83 98
e 83 99
e 84 86
e 84 87
e 84 89
e 84 91
e 84 93
e 84 94
e 84 95
e 85 93
e 85 95
e 85 96
e 85 97
e 85 100
e 86 87
e 86 89
e 86 90
e 86 96
e 86 100
e 87 89
e 87 90
e 87 91
e 88 99
e 89 93
e 89 95
e 89 100
e 90 91
e 90 93
e 90 94
e 91 93
e 91 95
e 91 99
e 92 94
e 92 99
e 93 94
e 93 95
e 93 98
e 94 98
e 94 99
e 95 98
e 95 100
e 96 97
e 96 98
e 96 100
e 97 100
n 1 1
n 5 1
n 10 1
n 13 1
n 17 1
n 20 1
n 36 1
n 41 1
n 44 2
n 47 1
n 50 1
n 61 1
n 65 1
n 70 1
n 75 1
n 76 1
n 77 1
n 89 1
n 93 1
n 97 1
